\ Model ajuste
\ LP format - for model browsing. Use MPS format to capture full model detail.
Minimize
  - 8.2813421794917271e+07 coef_ajuste + 4.14010421850385e+07 Constant + [
   8.2824760772100076e+07 coef_ajuste ^2 ] / 2 
Subject To
Bounds
 coef_ajuste <= 1
 Constant = 1
End
